param n := 4;
param s := 1;
param t := 4;

set E :=
  (1,2) (1,3) (2,3) (2,4) (3,4);

param capacity :=
  [1,2] 10,
  [1,3] 5,
  [2,3] 15,
  [2,4] 10,
  [3,4] 5;

param cost :=
  [1,2] 4,
  [1,3] 2,
  [2,3] 1,
  [2,4] 6,
  [3,4] 3;
